c "87498.clq"
p edge 120 464
e 1 5
e 1 6
e 1 7
e 1 10
e 1 11
e 1 27
e 1 34
e 1 39
e 1 47
e 1 63
e 1 64
e 1 66
e 1 75
e 1 88
e 1 92
e 1 94
e 1 104
e 1 111
e 1 112
e 1 115
e 1 117
e 2 5
e 2 7
e 2 9
e 2 16
e 2 18
e 2 23
e 2 25
e 2 28
e 2 34
e 2 41
e 2 43
e 2 73
e 2 91
e 3 5
e 3 6
e 3 8
e 3 10
e 3 11
e 3 13
e 3 26
e 3 27
e 3 30
e 3 33
e 3 35
e 3 44
e 3 46
e 3 50
e 3 64
e 3 66
e 3 73
e 3 98
e 4 5
e 4 6
e 4 7
e 4 8
e 4 9
e 4 10
e 4 11
e 4 12
e 4 14
e 4 15
e 4 16
e 4 19
e 4 22
e 4 24
e 4 26
e 4 30
e 4 37
e 4 38
e 4 50
e 4 52
e 4 60
e 4 61
e 4 63
e 4 79
e 4 82
e 4 87
e 4 91
e 4 103
e 5 6
e 5 7
e 5 8
e 5 9
e 5 13
e 5 14
e 5 15
e 5 17
e 5 18
e 5 21
e 5 22
e 5 26
e 5 28
e 5 31
e 5 34
e 5 36
e 5 41
e 5 47
e 5 49
e 5 53
e 5 55
e 5 56
e 5 58
e 5 65
e 5 68
e 5 70
e 5 72
e 5 83
e 5 91
e 5 92
e 5 96
e 5 99
e 5 100
e 5 104
e 5 106
e 5 107
e 5 109
e 5 112
e 5 116
e 6 8
e 6 9
e 6 13
e 6 29
e 6 41
e 6 43
e 6 48
e 6 49
e 6 94
e 6 95
e 6 99
e 6 106
e 6 115
e 7 11
e 7 14
e 7 16
e 7 17
e 7 18
e 7 19
e 7 21
e 7 24
e 7 33
e 7 36
e 7 37
e 7 44
e 7 47
e 7 55
e 7 58
e 7 59
e 7 62
e 7 69
e 7 72
e 7 87
e 7 90
e 7 92
e 7 95
e 7 97
e 7 114
e 8 10
e 8 12
e 8 16
e 8 20
e 8 24
e 8 28
e 8 38
e 8 49
e 8 71
e 8 111
e 8 114
e 8 120
e 9 13
e 9 15
e 9 17
e 9 19
e 9 21
e 9 23
e 9 25
e 9 31
e 9 32
e 9 34
e 9 39
e 9 53
e 9 88
e 9 103
e 9 107
e 9 113
e 10 12
e 10 20
e 10 33
e 10 40
e 10 62
e 10 68
e 10 74
e 10 80
e 10 85
e 10 95
e 10 101
e 11 12
e 11 25
e 11 32
e 11 40
e 11 48
e 11 99
e 11 119
e 11 120
e 12 14
e 12 17
e 12 19
e 12 35
e 12 43
e 12 45
e 12 46
e 12 61
e 12 80
e 12 81
e 13 15
e 13 21
e 13 23
e 13 40
e 13 45
e 13 51
e 13 59
e 13 65
e 13 100
e 14 28
e 14 68
e 14 72
e 14 86
e 14 93
e 15 22
e 15 23
e 15 35
e 15 50
e 15 84
e 15 89
e 16 18
e 16 20
e 16 24
e 16 25
e 16 31
e 16 36
e 16 39
e 16 41
e 16 46
e 16 51
e 16 53
e 16 59
e 16 77
e 16 78
e 16 79
e 16 86
e 16 89
e 16 90
e 17 39
e 17 44
e 17 70
e 18 22
e 18 43
e 19 20
e 19 29
e 19 35
e 19 37
e 19 38
e 19 42
e 19 55
e 19 67
e 19 74
e 19 77
e 19 93
e 19 94
e 19 105
e 19 108
e 20 27
e 20 36
e 20 45
e 20 67
e 20 116
e 21 55
e 21 71
e 21 86
e 21 98
e 22 31
e 22 32
e 22 38
e 22 40
e 22 54
e 22 56
e 22 61
e 22 65
e 22 70
e 22 80
e 22 88
e 22 116
e 22 118
e 23 29
e 23 30
e 23 32
e 23 63
e 23 64
e 23 69
e 23 73
e 23 75
e 24 26
e 24 27
e 24 33
e 24 48
e 24 54
e 24 60
e 25 30
e 25 67
e 25 78
e 25 102
e 25 105
e 26 82
e 26 112
e 26 117
e 27 29
e 27 87
e 27 90
e 28 47
e 28 49
e 28 97
e 29 50
e 29 58
e 29 101
e 29 110
e 30 42
e 30 58
e 30 102
e 31 42
e 31 45
e 31 60
e 31 61
e 31 66
e 31 91
e 31 119
e 32 52
e 32 56
e 32 57
e 32 106
e 33 44
e 33 51
e 33 67
e 33 76
e 33 108
e 33 115
e 34 62
e 34 84
e 34 115
e 34 119
e 35 89
e 36 37
e 36 46
e 36 52
e 37 85
e 38 57
e 38 71
e 38 84
e 38 95
e 39 42
e 39 48
e 39 54
e 39 56
e 39 60
e 39 78
e 39 93
e 39 96
e 39 100
e 39 101
e 39 118
e 40 52
e 40 53
e 40 69
e 40 77
e 40 81
e 40 83
e 40 96
e 40 109
e 41 68
e 41 83
e 42 51
e 42 73
e 42 75
e 42 80
e 42 82
e 43 57
e 44 97
e 44 114
e 45 63
e 45 69
e 45 70
e 45 107
e 48 62
e 48 85
e 48 87
e 48 90
e 49 54
e 49 65
e 49 79
e 49 82
e 49 92
e 49 101
e 49 117
e 50 74
e 50 113
e 51 74
e 52 57
e 52 59
e 52 116
e 53 81
e 53 119
e 54 118
e 55 76
e 55 108
e 55 117
e 56 76
e 57 75
e 58 77
e 59 66
e 59 96
e 60 71
e 60 88
e 61 79
e 61 84
e 61 112
e 62 81
e 63 64
e 63 110
e 65 78
e 66 98
e 70 72
e 70 120
e 71 93
e 73 89
e 73 103
e 74 76
e 74 85
e 74 94
e 75 83
e 77 103
e 78 102
e 80 86
e 80 113
e 82 107
e 83 97
e 83 109
e 88 109
e 89 105
e 91 98
e 91 99
e 92 100
e 92 104
e 94 105
e 97 104
e 98 106
e 98 111
e 99 102
e 102 120
e 103 110
e 104 108
e 104 118
e 106 111
e 107 110
e 108 113
e 113 114
